Optimal - objective value 3804.00000000
      9 x_0_10                  1                       0
     27 x_1_11                  1                       0
     39 x_2_6                   1                     173
     57 x_3_7                   1                      18
     84 x_4_17                  1                     164
     88 x_5_3                   1                       0
    110 x_6_9                   1                       0
    126 x_7_8                   1                     160
    136 x_8_0                   1                     153
    154 x_9_1                   1                      63
    181 x_10_12                 1                       0
    192 x_11_5                  1                       0
    218 x_12_15                 1                       0
    236 x_13_16                 1                     140
    240 x_14_2                  1                       0
    259 x_15_4                  1                    -179
    286 x_16_14                 1                     213
    302 x_17_13                 1                       0
    306 u_1                    12                       0
    307 u_2                     9                       0
    308 u_3                    15                       0
    309 u_4                     4                       0
    310 u_5                    14                       0
    311 u_6                    10                       0
    312 u_7                    16                       0
    313 u_8                    17                       0
    314 u_9                    11                       0
    315 u_10                    1                       0
    316 u_11                   13                       0
    317 u_12                    2                       0
    318 u_13                    6                       0
    319 u_14                    8                       0
    320 u_15                    3                       0
    321 u_16                    7                       0
    322 u_17                    5                       0
